(set-info :Origin "This instance was generated by: BanditFuzz-- an RL fuzzer for SMT solvers" )
(set-info :Author "Joe Scott, Fed Mora, Vijay Ganesh" )
(set-info :Contact "Joe Scott, joseph.scott@uwaterloo.ca")
(set-logic QF_BV)
(declare-const bool_0 Bool)
(declare-const bool_1 Bool)
(declare-const bool_2 Bool)
(declare-const bool_3 Bool)
(declare-const bool_4 Bool)
(declare-const bv_0 (_ BitVec 32))
(declare-const bv_1 (_ BitVec 32))
(declare-const bv_2 (_ BitVec 32))
(declare-const bv_3 (_ BitVec 32))
(declare-const bv_4 (_ BitVec 32))
(assert (bvugt (bvsdiv (bvudiv bv_1 bv_0) (bvudiv bv_3 #xf00342b3 )) (bvsmod (bvmul #xf4765737  #x430a1ed6 ) (bvadd #xf88a145f  bv_4))))
(assert (bvsle (bvadd (bvshl bv_3 bv_0) (bvurem #x81cd672d  #x529de628 )) (bvnand (bvshl #x2fb6e441  bv_4) (bvashr bv_4 bv_0))))
(assert (bvuge (bvmul (bvashr bv_1 bv_0) (bvsub bv_0 #x64f473ba )) (bvmul (bvand #x498cc219  bv_2) (bvudiv bv_4 bv_2))))
(assert (bvult (bvsmod (bvnor #x40bb381b  #xa90fbdd7 ) (bvmul bv_3 #x7da9869a )) (bvurem (bvadd bv_3 bv_1) (bvudiv bv_0 bv_0))))
(assert (bvule (bvudiv (bvxor bv_1 #xf9cc867e ) (bvand bv_3 #x6e59b031 )) (bvmul (bvashr bv_2 bv_0) (bvadd bv_4 bv_2))))
(check-sat)
(exit)
